0
Node Left Objective IInf Best_Integer Best_Bound ItCnt Gap
0 0 43.0201 6 43.0201 54
0 0 44.1279 8 Disjcuts:5 70
0 0 45.7379 8 Disjcuts:7 84
0 0 46.7310 8 Disjcuts:6 100
0+ 0 nan nan 52.9813 46.7310 nan 11.80%
0 0 47.5930 8 52.9813 Disjcuts:6 112 10.17%
0+ 0 nan nan 52.9813 47.5930 nan 10.17%
0 0 47.5930 8 52.9813 47.5930 179 10.17%
0 0 47.7540 8 52.9813 Disjcuts:2 181 9.87%
0 2 48.3405 6 52.9813 49.3889 181 6.78%
CPXPARAM_MIP_Cuts_Disjunctive 8
1
Node Left Objective IInf Best_Integer Best_Bound ItCnt Gap
0 0 2.5600 6 2.5600 61
0 0 2.8243 6 Disjcuts:4 74
0 0 3.6607 7 Disjcuts:6 87
0+ 0 nan nan 11.3251 3.6607 nan 67.68%
0 0 4.6412 7 11.3251 Disjcuts:4 99 59.02%
0 0 4.7899 6 11.3251 Disjcuts:6 110 57.71%
0 0 4.8382 7 11.3251 Disjcuts:4 115 57.28%
0 2 4.8382 7 11.3251 4.8487 115 57.19%
CPXPARAM_MIP_Cuts_Disjunctive 7
2
Node Left Objective IInf Best_Integer Best_Bound ItCnt Gap
0 0 40.5363 2 40.5363 49
0+ 0 nan nan 40.6800 40.5363 nan 0.35%
0+ 0 nan nan 40.6800 40.5363 nan 0.35%
0 0 40.5363 2 40.6800 40.5363 104 0.35%
0 0 cutoff 40.6800 40.6800 109 0.00% 0
CPXPARAM_MIP_Cuts_Disjunctive 0
3
Node Left Objective IInf Best_Integer Best_Bound ItCnt Gap
0 0 6.4123 1 6.4123 41
0+ 0 nan nan 6.4123 6.4123 nan 0.00%
0 0 cutoff 6.4123 6.4123 41 0.00% 0
CPXPARAM_MIP_Cuts_Disjunctive 0
4
Node Left Objective IInf Best_Integer Best_Bound ItCnt Gap
0 0 50.7422 6 50.7422 57
0 0 50.8148 9 Disjcuts:5 70
0 0 51.4906 9 Disjcuts:6 81
0+ 0 nan nan 54.5576 51.4906 nan 5.62%
0+ 0 nan nan 54.5576 51.4906 nan 5.62%
0 0 51.4906 9 54.5576 51.4906 149 5.62%
0 2 51.6681 6 54.5576 51.7066 149 5.23%
CPXPARAM_MIP_Cuts_Disjunctive 7
5
Node Left Objective IInf Best_Integer Best_Bound ItCnt Gap
0 0 2.3864 6 2.3864 56
0 0 2.4308 8 Disjcuts:3 67
0 0 3.4576 8 Disjcuts:7 80
0+ 0 nan nan 13.6225 3.4576 nan 74.62%
0 0 4.0904 8 13.6225 Disjcuts:7 89 69.97%
0 0 4.9314 8 13.6225 Disjcuts:8 103 63.80%
0 0 5.9235 8 13.6225 Disjcuts:8 117 56.52%
0 0 5.9772 8 13.6225 Disjcuts:2 122 56.12%
0 2 6.0678 6 13.6225 6.1559 122 54.81%
CPXPARAM_MIP_Cuts_Disjunctive 9
6
Node Left Objective IInf Best_Integer Best_Bound ItCnt Gap
0+ 0 nan nan 698.6785 -80.3724 nan 111.50%
0 0 49.1770 2 698.6785 49.1770 57 92.96%
0 0 49.1770 2 698.6785 Disjcuts:1 61 92.96%
0 2 49.1770 2 698.6785 49.1770 64 92.96%
CPXPARAM_MIP_Cuts_Disjunctive 1
7
Node Left Objective IInf Best_Integer Best_Bound ItCnt Gap
0 0 7.4387 2 7.4387 48
0+ 0 nan nan 9.7351 7.4387 nan 23.59%
0 0 7.4387 2 9.7351 Disjcuts:1 52 23.59%
0+ 0 nan nan 9.7351 7.4387 nan 23.59%
0 0 7.4387 2 9.7351 7.4387 103 23.59%
0 1 7.5968 2 9.7351 8.6605 103 11.04%
CPXPARAM_MIP_Cuts_Disjunctive 1
8
Node Left Objective IInf Best_Integer Best_Bound ItCnt Gap
0 0 65.7942 6 65.7942 62
0 0 65.8043 8 Disjcuts:5 73
0 0 65.8467 8 Disjcuts:8 81
0+ 0 nan nan 67.9165 65.8467 nan 3.05%
0+ 0 nan nan 67.9165 65.8467 nan 3.05%
0 0 65.8467 8 67.9165 65.8467 152 3.05%
0 0 65.8757 7 67.9165 Disjcuts:6 159 3.00%
0 2 65.8804 6 67.9165 65.8928 159 2.98%
CPXPARAM_MIP_Cuts_Disjunctive 4
9
Node Left Objective IInf Best_Integer Best_Bound ItCnt Gap
0 0 11.8594 6 11.8594 54
0 0 13.0587 8 Disjcuts:5 65
0 0 14.3400 9 Disjcuts:9 74
0 0 14.9580 9 Disjcuts:6 85
0 0 15.4810 9 Disjcuts:7 94
0 0 15.7206 8 Disjcuts:6 101
0 0 15.7992 9 Disjcuts:1 103
0 2 15.7992 9 15.8813 103 0 0
CPXPARAM_MIP_Cuts_Disjunctive 8
10
Node Left Objective IInf Best_Integer Best_Bound ItCnt Gap
0 0 60.5073 2 60.5073 52
0+ 0 nan nan 60.5115 60.5073 nan 0.01%
CPXPARAM_MIP_Cuts_Disjunctive 0
11
Node Left Objective IInf Best_Integer Best_Bound ItCnt Gap
0 0 16.6537 2 16.6537 50
0+ 0 nan nan 16.6575 16.6537 nan 0.02%
0+ 0 nan nan 16.6575 16.6537 nan 0.02%
0 0 16.6537 2 16.6575 16.6537 111 0.02%
0 0 16.6537 2 16.6575 Disjcuts:1 115 0.02%
0 0 cutoff 16.6575 16.6537 117 0.02% 0
CPXPARAM_MIP_Cuts_Disjunctive 1
12
Node Left Objective IInf Best_Integer Best_Bound ItCnt Gap
0 0 44.2061 6 44.2061 61
0 0 45.0903 9 Disjcuts:6 76
0 0 46.6821 9 Disjcuts:9 86
0 0 47.9220 9 Disjcuts:9 98
0 0 48.8209 9 Disjcuts:8 112
0 0 49.1358 9 Disjcuts:8 123
0 0 49.3254 9 Disjcuts:1 124
0 2 49.3254 9 49.3743 124 0 0
CPXPARAM_MIP_Cuts_Disjunctive 10
13
Node Left Objective IInf Best_Integer Best_Bound ItCnt Gap
0 0 10.2945 6 10.2945 57
0+ 0 nan nan 16.4316 10.2945 nan 37.35%
0 0 10.4942 8 16.4316 Disjcuts:5 70 36.13%
0 0 10.8973 8 16.4316 Disjcuts:8 81 33.68%
0 0 11.3475 8 16.4316 Disjcuts:7 93 30.94%
0 0 11.8168 8 16.4316 Disjcuts:8 109 28.08%
0 0 12.1681 7 16.4316 Disjcuts:9 120 25.95%
0 0 12.2060 8 16.4316 Disjcuts:1 124 25.72%
0 2 12.2340 7 16.4316 12.2571 124 25.41%
CPXPARAM_MIP_Cuts_Disjunctive 10
14
Node Left Objective IInf Best_Integer Best_Bound ItCnt Gap
0 0 46.5469 2 46.5469 53
0+ 0 nan nan 47.4290 46.5469 nan 1.86%
0 0 46.5469 2 47.4290 Disjcuts:1 57 1.86%
0+ 0 nan nan 47.4290 46.5469 nan 1.86%
0 0 46.5469 2 47.4290 46.5469 111 1.86%
0 0 cutoff 47.4290 119 0.00% 0 0
CPXPARAM_MIP_Cuts_Disjunctive 1
15
Node Left Objective IInf Best_Integer Best_Bound ItCnt Gap
0+ 0 nan nan 754.6210 -94.3684 nan 112.51%
0 0 10.7585 2 754.6210 10.7585 50 98.57%
0 0 10.7585 2 754.6210 Disjcuts:1 54 98.57%
0 0 10.7585 2 754.6210 Disjcuts:1 57 98.57%
0 2 10.7585 2 754.6210 10.7585 57 98.57%
CPXPARAM_MIP_Cuts_Disjunctive 2
16
Node Left Objective IInf Best_Integer Best_Bound ItCnt Gap
0 0 58.8715 6 58.8715 57
0 0 59.6608 7 Disjcuts:4 70
0 0 60.8556 5 Disjcuts:5 80
0+ 0 nan nan 61.8856 60.8556 nan 1.66%
0+ 0 nan nan 61.8856 60.8556 nan 1.66%
0 0 60.8572 4 61.8856 60.8572 138 1.66%
0 2 61.8249 1 61.8856 61.8249 138 0.10%
CPXPARAM_MIP_Cuts_Disjunctive 2
17
Node Left Objective IInf Best_Integer Best_Bound ItCnt Gap
0 0 10.2675 6 10.2675 65
0 0 10.4236 8 Disjcuts:6 76
0 0 11.3358 8 Disjcuts:7 89
0+ 0 nan nan 21.7788 11.3358 nan 47.95%
0 0 11.7491 9 21.7788 Disjcuts:7 98 46.05%
0 0 12.4545 8 21.7788 Disjcuts:12 109 42.81%
0 0 12.6721 9 21.7788 Disjcuts:4 116 41.81%
0 0 12.6763 9 21.7788 Disjcuts:1 117 41.80%
0 0 12.7925 8 21.7788 Disjcuts:1 126 41.26%
0 2 12.8399 7 21.7788 12.8555 126 40.97%
CPXPARAM_MIP_Cuts_Disjunctive 7
18
Node Left Objective IInf Best_Integer Best_Bound ItCnt Gap
0+ 0 nan nan 850.5680 -92.8051 nan 110.91%
0 0 58.3813 2 850.5680 58.3813 51 93.14%
0 0 58.3813 2 850.5680 Disjcuts:2 55 93.14%
0+ 0 nan nan 58.4112 58.3813 nan 0.05%
0+ 0 nan nan 58.4112 58.3813 nan 0.05%
0 0 58.3813 2 58.4112 58.3813 113 0.05%
0 0 cutoff 58.4112 58.3813 120 0.05% 0
CPXPARAM_MIP_Cuts_Disjunctive 2
19
Node Left Objective IInf Best_Integer Best_Bound ItCnt Gap
0+ 0 nan nan 682.2187 -97.6235 nan 114.31%
0 0 15.5882 2 682.2187 15.5882 47 97.72%
0 0 15.5882 2 682.2187 Disjcuts:1 51 97.72%
0+ 0 nan nan 15.7874 15.5882 nan 1.26%
0 0 15.5882 2 15.7874 Disjcuts:1 54 1.26%
0+ 0 nan nan 15.7874 15.5882 nan 1.26%
0 0 15.5882 2 15.7874 15.5882 97 1.26%
0 2 15.5882 2 15.7874 15.5882 99 1.26%
CPXPARAM_MIP_Cuts_Disjunctive 2
20
Node Left Objective IInf Best_Integer Best_Bound ItCnt Gap
0 0 31.6179 6 31.6179 61
0 0 31.6325 7 Disjcuts:4 73
0 0 integral 0 34.4860 34.4860 95 0.00%
CPXPARAM_MIP_Cuts_Disjunctive 0
21
Node Left Objective IInf Best_Integer Best_Bound ItCnt Gap
0 0 5.4416 6 5.4416 61
0 0 5.6106 8 Disjcuts:5 82
0 0 7.0573 7 Disjcuts:4 97
0+ 0 nan nan 9.1778 7.0573 nan 23.11%
0 0 7.6794 7 9.1778 Disjcuts:6 105 16.33%
0 0 7.8630 6 9.1778 Disjcuts:3 112 14.33%
0+ 0 nan nan 9.1778 7.8630 nan 14.33%
0 0 7.8630 6 9.1778 7.8630 181 14.33%
0 0 8.0541 7 9.1778 Disjcuts:2 191 12.24%
0 0 cutoff 9.1778 8.0541 191 12.24% 0
CPXPARAM_MIP_Cuts_Disjunctive 5
22
Node Left Objective IInf Best_Integer Best_Bound ItCnt Gap
0 0 28.4414 2 28.4414 42
0+ 0 nan nan 28.5540 28.4414 nan 0.39%
0 0 28.4414 2 28.5540 Disjcuts:1 46 0.39%
0+ 0 nan nan 28.5540 28.4414 nan 0.39%
0 0 28.4414 2 28.5540 28.4414 92 0.39%
0+ 0 nan nan 28.5434 28.4414 nan 0.36%
0 2 28.4414 2 28.5434 28.4414 92 0.36%
CPXPARAM_MIP_Cuts_Disjunctive 1
23
Node Left Objective IInf Best_Integer Best_Bound ItCnt Gap
0 0 3.9556 2 3.9556 52
0+ 0 nan nan 4.0841 3.9556 nan 3.15%
0+ 0 nan nan 4.0841 3.9556 nan 3.15%
0 0 3.9556 2 4.0841 3.9556 109 3.15%
0 2 3.9556 2 4.0841 3.9556 109 3.15%
CPXPARAM_MIP_Cuts_Disjunctive 0
24
Node Left Objective IInf Best_Integer Best_Bound ItCnt Gap
0 0 34.8025 6 34.8025 60
0+ 0 nan nan 38.6713 34.8025 nan 10.00%
0 0 34.8319 8 38.6713 Disjcuts:5 73 9.93%
0 0 35.6475 8 38.6713 Disjcuts:3 84 7.82%
0+ 0 nan nan 38.6713 35.6475 nan 7.82%
0 0 35.6475 8 38.6713 35.6475 145 7.82%
0 0 cutoff 38.6713 35.6475 145 7.82% 0
CPXPARAM_MIP_Cuts_Disjunctive 6
25
Node Left Objective IInf Best_Integer Best_Bound ItCnt Gap
0 0 0.4196 6 0.4196 63
0 0 0.6887 7 Disjcuts:4 80
0 0 1.6781 6 Disjcuts:4 106
0 0 integral 0 7.4242 7.4242 134 0.00%
CPXPARAM_MIP_Cuts_Disjunctive 0
26
Node Left Objective IInf Best_Integer Best_Bound ItCnt Gap
0 0 integral 0 36.9182 36.9182 54 0.00%
CPXPARAM_MIP_Cuts_Disjunctive 0
27
Node Left Objective IInf Best_Integer Best_Bound ItCnt Gap
0 0 4.5323 2 4.5323 44
0+ 0 nan nan 4.5514 4.5323 nan 0.42%
0 0 4.5323 2 4.5514 Disjcuts:1 48 0.42%
0+ 0 nan nan 4.5514 4.5323 nan 0.42%
0 0 4.5323 2 4.5514 4.5323 101 0.42%
0 2 4.5323 2 4.5514 4.5323 103 0.42%
CPXPARAM_MIP_Cuts_Disjunctive 1
28
Node Left Objective IInf Best_Integer Best_Bound ItCnt Gap
0 0 63.6500 6 63.6500 54
0 0 64.7895 8 Disjcuts:5 67
0 0 67.2057 7 Disjcuts:7 77
0+ 0 nan nan 74.1734 67.2057 nan 9.39%
0+ 0 nan nan 74.1734 67.2057 nan 9.39%
0 0 67.2057 7 74.1734 67.2057 134 9.39%
0 0 cutoff 74.1734 67.2057 134 9.39% 0
CPXPARAM_MIP_Cuts_Disjunctive 6
29
Node Left Objective IInf Best_Integer Best_Bound ItCnt Gap
0+ 0 nan nan 994.8986 -114.3356 nan 111.49%
0+ 0 nan nan 37.2949 -114.3356 nan 406.57%
0 0 6.3884 6 37.2949 6.3884 54 82.87%
0+ 0 nan nan 16.1240 6.3884 nan 60.38%
0 2 6.3884 6 16.1240 6.3884 54 60.38%
CPXPARAM_MIP_Cuts_Disjunctive 0
30
Node Left Objective IInf Best_Integer Best_Bound ItCnt Gap
0+ 0 nan nan 514.4143 -106.7235 nan 120.75%
0+ 0 nan nan 83.5731 -106.7235 nan 227.70%
0 0 69.0899 2 83.5731 69.0899 47 17.33%
0+ 0 nan nan 69.6843 69.0899 nan 0.85%
0+ 0 nan nan 69.6843 69.0899 nan 0.85%
0 0 69.0899 2 69.6843 69.0899 94 0.85%
0 2 69.0899 2 69.6843 69.0899 94 0.85%
CPXPARAM_MIP_Cuts_Disjunctive 0
31
Node Left Objective IInf Best_Integer Best_Bound ItCnt Gap
0 0 7.6579 2 7.6579 41
0+ 0 nan nan 8.0780 7.6579 nan 5.20%
0 0 7.6579 2 8.0780 Disjcuts:1 45 5.20%
0+ 0 nan nan 8.0780 7.6579 nan 5.20%
0 0 7.6579 2 8.0780 7.6579 89 5.20%
0 2 7.6579 2 8.0780 7.6579 91 5.20%
CPXPARAM_MIP_Cuts_Disjunctive 1
32
Node Left Objective IInf Best_Integer Best_Bound ItCnt Gap
0 0 46.2013 6 46.2013 60
0 0 46.2394 7 Disjcuts:5 71
0 0 46.4378 7 Disjcuts:3 83
0 0 46.9097 7 Disjcuts:5 93
0 0 47.1752 7 Disjcuts:6 102
0+ 0 nan nan 49.3481 47.1752 nan 4.40%
0+ 0 nan nan 49.3481 47.1752 nan 4.40%
0 0 47.1752 7 49.3481 47.1752 172 4.40%
0 0 cutoff 49.3481 47.1752 172 4.40% 0
CPXPARAM_MIP_Cuts_Disjunctive 7
33
Node Left Objective IInf Best_Integer Best_Bound ItCnt Gap
0 0 0.8948 6 0.8948 57
0 0 1.6642 8 Disjcuts:5 71
0 0 7.3682 6 Disjcuts:2 89
0+ 0 nan nan 11.6907 7.3682 nan 36.97%
0 0 cutoff 11.6907 108 0.00% 0 0
CPXPARAM_MIP_Cuts_Disjunctive 4
34
Node Left Objective IInf Best_Integer Best_Bound ItCnt Gap
0 0 41.8656 2 41.8656 44
0+ 0 nan nan 41.9255 41.8656 nan 0.14%
0+ 0 nan nan 41.9255 41.8656 nan 0.14%
0 0 41.8656 2 41.9255 41.8656 90 0.14%
0 0 41.8656 2 41.9255 Disjcuts:1 94 0.14%
0 0 cutoff 41.9255 41.8656 96 0.14% 0
CPXPARAM_MIP_Cuts_Disjunctive 1
35
Node Left Objective IInf Best_Integer Best_Bound ItCnt Gap
0 0 10.6421 2 10.6421 45
0+ 0 nan nan 17.9751 10.6421 nan 40.80%
0 2 10.6421 2 17.9751 10.6421 52 40.80%
CPXPARAM_MIP_Cuts_Disjunctive 0
36
Node Left Objective IInf Best_Integer Best_Bound ItCnt Gap
0 0 48.4886 6 48.4886 59
0 0 48.5199 7 Disjcuts:3 68
0 0 49.2132 5 Disjcuts:4 75
0+ 0 nan nan 52.9256 49.2132 nan 7.01%
0+ 0 nan nan 52.9256 49.2132 nan 7.01%
0 0 49.2132 5 52.9256 49.2132 141 7.01%
0 0 49.2328 7 52.9256 Disjcuts:1 145 6.98%
0 0 cutoff 52.9256 49.2328 145 6.98% 0
CPXPARAM_MIP_Cuts_Disjunctive 5
37
Node Left Objective IInf Best_Integer Best_Bound ItCnt Gap
0 0 -6.1266 6 -6.1266 62
0 0 -5.6413 9 Disjcuts:6 75
0 0 -3.9051 8 Disjcuts:8 89
0 0 -2.5420 8 Disjcuts:7 101
0 0 -1.9545 8 Disjcuts:8 114
0 0 -1.2142 8 Disjcuts:7 125
0 2 -1.2142 8 -1.2019 125 0 0
CPXPARAM_MIP_Cuts_Disjunctive 7
38
Node Left Objective IInf Best_Integer Best_Bound ItCnt Gap
0 0 47.4773 2 47.4773 45
0+ 0 nan nan 47.5785 47.4773 nan 0.21%
0+ 0 nan nan 47.5785 47.4773 nan 0.21%
0 0 47.4773 2 47.5785 47.4773 93 0.21%
0 0 47.4773 2 47.5785 Disjcuts:1 97 0.21%
0 0 cutoff 47.5785 101 0.00% 0 0
CPXPARAM_MIP_Cuts_Disjunctive 1
39
Node Left Objective IInf Best_Integer Best_Bound ItCnt Gap
0 0 7.0905 2 7.0905 43
0+ 0 nan nan 7.1260 7.0905 nan 0.50%
0+ 0 nan nan 7.1260 7.0905 nan 0.50%
0 0 7.0905 2 7.1260 7.0905 90 0.50%
0 0 7.0905 2 7.1260 Disjcuts:1 94 0.50%
0 0 cutoff 7.1260 7.0905 97 0.50% 0
CPXPARAM_MIP_Cuts_Disjunctive 1
